(declare-fun var0 () String)
(assert (str.in.re var0 (re.++ (re.union (re.* (str.to.re "BB")) (re.union (str.to.re "CCC") (str.to.re "DDD"))) (re.++ (re.union (re.+ (str.to.re "zz")) (re.* (str.to.re "AA"))) (re.++ (re.* (re.+ (str.to.re "yy"))) (re.++ (re.union (re.* (str.to.re "ww")) (re.* (str.to.re "xxx"))) (re.++ (re.union (re.+ (str.to.re "u")) (re.+ (str.to.re "vvv"))) (re.++ (re.* (re.union (str.to.re "sss") (str.to.re "t"))) (re.++ (re.union (re.union (str.to.re "pp") (str.to.re "qq")) (re.+ (str.to.re "rr"))) (re.++ (re.* (re.+ (str.to.re "oo"))) (re.++ (re.union (re.* (str.to.re "lll")) (re.union (str.to.re "mmm") (str.to.re "nnn"))) (re.++ (re.+ (re.* (str.to.re "k"))) (re.++ (re.union (re.* (str.to.re "h")) (re.union (str.to.re "iii") (str.to.re "j"))) (re.++ (re.* (re.union (str.to.re "f") (str.to.re "gg"))) (re.++ (re.union (re.* (str.to.re "dd")) (re.+ (str.to.re "ee"))) (re.++ (re.+ (re.* (str.to.re "c"))) (re.++ (re.union (re.+ (str.to.re "aa")) (re.* (str.to.re "b"))) (re.++ (re.* (re.+ (str.to.re "9"))) (re.++ (re.* (re.* (str.to.re "8"))) (re.++ (re.* (re.+ (str.to.re "7"))) (re.++ (re.* (re.* (str.to.re "66"))) (re.++ (re.union (re.* (str.to.re "44")) (re.* (str.to.re "5"))) (re.++ (re.+ (re.+ (str.to.re "33"))) (re.++ (re.+ (re.* (str.to.re "22"))) (re.+ (re.union (str.to.re "0") (str.to.re "111")))))))))))))))))))))))))))
(check-sat)